33593
0 0 0 0 1 0 1 0 0 0 0 0 1 0 0 0 1 1 1 0 0 0 0 1 1 1 0 0 1 1 
18 6 24 24 16 12 16 28 18 28 4 28 17 23 28 18 23 17 18 28 18 16 17 24 17 18 24 28 29 16 6 4 4 16 18 6 4 4 18 16 18 29 6 29 4 6 23 16 6 6 24 16 24 16 17 6 25 29 18 25 29 28 25 4 4 25 23 6 6 25 18 12 6 4 17 23 28 17 4 24 24 17 4 25 29 17 6 24 24 25 28 6 25 25 24 23 12 6 17 28 28 24 25 18 4 16 4 24 18 23 6 29 18 12 12 4 28 25 17 29 4 25 28 6 4 16 16 12 4 17 17 16 25 28 23 4 23 23 28 17 12 18 12 25 25 17 24 16 18 25 24 17 23 28 23 12 24 16 23 23 23 25 17 24 17 18 23 29 23 24 23 4 6 28 29 16 28 17 29 17 23 16 24 6 12 29 28 23 24 16 24 16 6 4 25 12 25 16 23 6 
